data/instances/vrp_files/train_20.vrp
NAME : 20
COMMENT : Generated instance No. 20
TYPE : CVRP
DIMENSION : 21
EDGE_WEIGHT_TYPE : EUC_2D
CAPACITY : 30
NODE_COORD_SECTION
 1 647 594
 2 465 879
 3 5 819
 4 228 908
 5 1 556
 6 756 258
 7 193 84
 8 326 559
 9 115 376
 10 9 818
 11 128 283
 12 18 432
 13 840 392
 14 179 753
 15 788 173
 16 770 947
 17 166 770
 18 708 473
 19 57 74
 20 852 990
 21 676 445
DEMAND_SECTION
1 0
2 7
3 1
4 6
5 3
6 10
7 7
8 10
9 2
10 2
11 4
12 1
13 3
14 9
15 7
16 7
17 4
18 2
19 4
20 6
21 3
DEPOT_SECTION
 1
 -1
EOF